clingo version 5.6.2
Reading from ...togen_asp_scripts/ijp_expt_cases-82.dl
Solving...
UNSATISFIABLE

Models       : 0
Calls        : 1
Time         : 5.254s (Solving: 5.08s 1st Model: 0.00s Unsat: 5.08s)
CPU Time     : 5.253s
